r = [
0,312,108,72,265,124,51,115,37,10,198,250,170,37,86,80,301,297,31,144,89,118,118,104,284,48,0
];
p = [
0,8,25,24,15,12,5,22,27,18,28,5,22,5,1,6,8,8,17,8,15,23,12,15,6,17,0
];
e = [
0,1,6,17,14,18,15,10,9,17,2,16,11,3,5,17,17,13,8,3,3,10,15,5,5,17,0
];
d = [
0,336,154,112,306,167,91,142,82,44,240,282,192,86,129,108,324,346,83,171,120,161,136,155,326,80,347
];
d_bar = [
0,337,157,114,308,168,92,144,85,46,243,283,194,87,130,109,325,347,85,172,122,163,137,157,327,82,347
];
w = [
0,1,2,8.5,7,18,15,5,3,8.5,0.666666667,16,5.5,3,5,17,17,13,4,3,1.5,5,15,2.5,5,8.5,0
];
